words_hard_train/5821.qaiger
aag 142 16 0 1 126
2
4
8
12
16
20
24
34
36
54
62
74
90
106
122
138
284
6 3 5
10 6 9
14 10 13
18 14 17
22 18 21
26 22 25
28 27 3
30 26 2
32 29 31
38 34 36
40 35 37
42 39 41
44 32 43
46 33 42
48 45 47
50 2 4
52 51 7
56 53 55
58 52 54
60 57 59
64 62 2
66 60 64
68 67 59
70 7 8
72 71 11
76 73 75
78 72 74
80 77 79
82 69 80
84 83 79
86 11 12
88 87 15
92 89 91
94 88 90
96 93 95
98 85 96
100 99 95
102 15 16
104 103 19
108 105 107
110 104 106
112 109 111
114 101 112
116 115 111
118 19 20
120 119 23
124 121 123
126 120 122
128 125 127
130 117 128
132 131 127
134 23 24
136 135 27
140 137 139
142 136 138
144 141 143
146 133 144
148 147 143
150 48 148
152 49 149
154 151 153
156 63 3
158 157 65
160 158 36
162 61 65
164 163 67
166 164 24
168 161 167
170 165 25
172 169 171
174 68 81
176 175 83
178 176 20
180 173 179
182 177 21
184 181 183
186 84 97
188 187 99
190 189 17
192 188 16
194 191 193
196 184 194
198 197 193
200 100 113
202 201 115
204 203 13
206 202 12
208 205 207
210 199 208
212 211 207
214 116 129
216 215 131
218 217 9
220 216 8
222 219 221
224 213 222
226 225 221
228 132 145
230 229 147
232 231 5
234 230 4
236 233 235
238 227 236
240 239 235
242 154 241
244 155 240
246 243 245
248 179 183
250 249 173
252 198 209
254 253 211
256 251 255
258 168 171
260 159 37
262 258 261
264 185 195
266 265 197
268 262 267
270 212 223
272 271 225
274 268 273
276 226 237
278 277 239
280 274 279
282 256 280
284 247 282
i0 1 x2[0]
i1 1 x2[1]
i2 1 x2[2]
i3 1 x2[3]
i4 1 x2[4]
i5 1 x2[5]
i6 1 x2[6]
i7 2 y2[7]
i8 1 x2[7]
i9 2 y2[1]
i10 2 y2[0]
i11 2 y2[2]
i12 2 y2[3]
i13 2 y2[4]
i14 2 y2[5]
i15 2 y2[6]
o0 bool[0]
c
simplified
  ==
    135
    add
      reverse
        1 x2
      subtract
        2 y2
        1 x2
