words_hard_train/5821.qaiger.qdimacs
p cnf 142 379
a 1 2 4 6 8 10 12 18 0
e 3 5 7 9 11 13 14 15 16 17 19 20 21 22 23 24 25 26 27 28 29 30 31 32 33 34 35 36 37 38 39 40 41 42 43 44 45 46 47 48 49 50 51 52 53 54 55 56 57 58 59 60 61 62 63 64 65 66 67 68 69 70 71 72 73 74 75 76 77 78 79 80 81 82 83 84 85 86 87 88 89 90 91 92 93 94 95 96 97 98 99 100 101 102 103 104 105 106 107 108 109 110 111 112 113 114 115 116 117 118 119 120 121 122 123 124 125 126 127 128 129 130 131 132 133 134 135 136 137 138 139 140 141 142 0
1 2 3 0
-1 -3 0
-2 -3 0
-3 4 5 0
3 -5 0
-4 -5 0
-5 6 7 0
5 -7 0
-6 -7 0
-7 8 9 0
7 -9 0
-8 -9 0
-9 10 11 0
9 -11 0
-10 -11 0
-11 12 13 0
11 -13 0
-12 -13 0
13 1 14 0
-13 -14 0
-1 -14 0
-13 -1 15 0
13 -15 0
1 -15 0
14 15 16 0
-14 -16 0
-15 -16 0
-17 -18 19 0
17 -19 0
18 -19 0
17 18 20 0
-17 -20 0
-18 -20 0
19 20 21 0
-19 -21 0
-20 -21 0
-16 21 22 0
16 -22 0
-21 -22 0
16 -21 23 0
-16 -23 0
21 -23 0
22 23 24 0
-22 -24 0
-23 -24 0
-1 -2 25 0
1 -25 0
2 -25 0
25 3 26 0
-25 -26 0
-3 -26 0
26 27 28 0
-26 -28 0
-27 -28 0
-26 -27 29 0
26 -29 0
27 -29 0
28 29 30 0
-28 -30 0
-29 -30 0
-31 -1 32 0
31 -32 0
1 -32 0
-30 -32 33 0
30 -33 0
32 -33 0
33 29 34 0
-33 -34 0
-29 -34 0
3 -4 35 0
-3 -35 0
4 -35 0
35 5 36 0
-35 -36 0
-5 -36 0
36 37 38 0
-36 -38 0
-37 -38 0
-36 -37 39 0
36 -39 0
37 -39 0
38 39 40 0
-38 -40 0
-39 -40 0
34 -40 41 0
-34 -41 0
40 -41 0
41 39 42 0
-41 -42 0
-39 -42 0
5 -6 43 0
-5 -43 0
6 -43 0
43 7 44 0
-43 -44 0
-7 -44 0
44 45 46 0
-44 -46 0
-45 -46 0
-44 -45 47 0
44 -47 0
45 -47 0
46 47 48 0
-46 -48 0
-47 -48 0
42 -48 49 0
-42 -49 0
48 -49 0
49 47 50 0
-49 -50 0
-47 -50 0
7 -8 51 0
-7 -51 0
8 -51 0
51 9 52 0
-51 -52 0
-9 -52 0
52 53 54 0
-52 -54 0
-53 -54 0
-52 -53 55 0
52 -55 0
53 -55 0
54 55 56 0
-54 -56 0
-55 -56 0
50 -56 57 0
-50 -57 0
56 -57 0
57 55 58 0
-57 -58 0
-55 -58 0
9 -10 59 0
-9 -59 0
10 -59 0
59 11 60 0
-59 -60 0
-11 -60 0
60 61 62 0
-60 -62 0
-61 -62 0
-60 -61 63 0
60 -63 0
61 -63 0
62 63 64 0
-62 -64 0
-63 -64 0
58 -64 65 0
-58 -65 0
64 -65 0
65 63 66 0
-65 -66 0
-63 -66 0
11 -12 67 0
-11 -67 0
12 -67 0
67 13 68 0
-67 -68 0
-13 -68 0
68 69 70 0
-68 -70 0
-69 -70 0
-68 -69 71 0
68 -71 0
69 -71 0
70 71 72 0
-70 -72 0
-71 -72 0
66 -72 73 0
-66 -73 0
72 -73 0
73 71 74 0
-73 -74 0
-71 -74 0
-24 -74 75 0
24 -75 0
74 -75 0
24 74 76 0
-24 -76 0
-74 -76 0
75 76 77 0
-75 -77 0
-76 -77 0
31 1 78 0
-31 -78 0
-1 -78 0
78 32 79 0
-78 -79 0
-32 -79 0
-79 -18 80 0
79 -80 0
18 -80 0
30 32 81 0
-30 -81 0
-32 -81 0
81 33 82 0
-81 -82 0
-33 -82 0
-82 -12 83 0
82 -83 0
12 -83 0
80 83 84 0
-80 -84 0
-83 -84 0
82 12 85 0
-82 -85 0
-12 -85 0
84 85 86 0
-84 -86 0
-85 -86 0
-34 40 87 0
34 -87 0
-40 -87 0
87 41 88 0
-87 -88 0
-41 -88 0
-88 -10 89 0
88 -89 0
10 -89 0
86 89 90 0
-86 -90 0
-89 -90 0
88 10 91 0
-88 -91 0
-10 -91 0
90 91 92 0
-90 -92 0
-91 -92 0
-42 48 93 0
42 -93 0
-48 -93 0
93 49 94 0
-93 -94 0
-49 -94 0
94 8 95 0
-94 -95 0
-8 -95 0
-94 -8 96 0
94 -96 0
8 -96 0
95 96 97 0
-95 -97 0
-96 -97 0
-92 -97 98 0
92 -98 0
97 -98 0
98 96 99 0
-98 -99 0
-96 -99 0
-50 56 100 0
50 -100 0
-56 -100 0
100 57 101 0
-100 -101 0
-57 -101 0
101 6 102 0
-101 -102 0
-6 -102 0
-101 -6 103 0
101 -103 0
6 -103 0
102 103 104 0
-102 -104 0
-103 -104 0
99 -104 105 0
-99 -105 0
104 -105 0
105 103 106 0
-105 -106 0
-103 -106 0
-58 64 107 0
58 -107 0
-64 -107 0
107 65 108 0
-107 -108 0
-65 -108 0
108 4 109 0
-108 -109 0
-4 -109 0
-108 -4 110 0
108 -110 0
4 -110 0
109 110 111 0
-109 -111 0
-110 -111 0
106 -111 112 0
-106 -112 0
111 -112 0
112 110 113 0
-112 -113 0
-110 -113 0
-66 72 114 0
66 -114 0
-72 -114 0
114 73 115 0
-114 -115 0
-73 -115 0
115 2 116 0
-115 -116 0
-2 -116 0
-115 -2 117 0
115 -117 0
2 -117 0
116 117 118 0
-116 -118 0
-117 -118 0
113 -118 119 0
-113 -119 0
118 -119 0
119 117 120 0
-119 -120 0
-117 -120 0
-77 120 121 0
77 -121 0
-120 -121 0
77 -120 122 0
-77 -122 0
120 -122 0
121 122 123 0
-121 -123 0
-122 -123 0
89 91 124 0
-89 -124 0
-91 -124 0
124 86 125 0
-124 -125 0
-86 -125 0
-99 104 126 0
99 -126 0
-104 -126 0
126 105 127 0
-126 -127 0
-105 -127 0
125 127 128 0
-125 -128 0
-127 -128 0
-84 85 129 0
84 -129 0
-85 -129 0
79 18 130 0
-79 -130 0
-18 -130 0
-129 130 131 0
129 -131 0
-130 -131 0
92 97 132 0
-92 -132 0
-97 -132 0
132 98 133 0
-132 -133 0
-98 -133 0
-131 133 134 0
131 -134 0
-133 -134 0
-106 111 135 0
106 -135 0
-111 -135 0
135 112 136 0
-135 -136 0
-112 -136 0
-134 136 137 0
134 -137 0
-136 -137 0
-113 118 138 0
113 -138 0
-118 -138 0
138 119 139 0
-138 -139 0
-119 -139 0
-137 139 140 0
137 -140 0
-139 -140 0
-128 -140 141 0
128 -141 0
140 -141 0
123 -141 142 0
-123 -142 0
141 -142 0
142 0
